249 1000
1 451 63 72 76 77 90 121 129 160 201 219 232
2 267 6 16 24 35 39 41 51 54 55 58 62 63 64 66 69 72 76 77 89 90 105 108 111 121 122 129 130 133 150 157 160 178 180 183 186 187 196 201 205 208 212 216 219 225 226 232 237 239 240 247
3 282 6 14 16 24 29 30 35 36 39 41 51 53 54 55 58 62 63 64 66 67 69 72 76 77 78 84 85 89 90 92 96 104 105 106 108 110 111 116 117 121 122 129 130 133 138 145 150 151 157 160 165 176 178 180 183 186 187 196 197 199 201 203 205 208 209 211 212 216 218 219 225 226 232 233 234 237 239 240 242 245 247 249
4 438
5 275
6 287 8 9 12 14 15 16 17 19 20 24 28 29 30 33 35 36 39 41 42 44 46 47 51 52 53 54 55 56 58 62 63 64 66 67 69 71 72 73 74 75 76 77 78 84 85 89 90 91 92 93 95 96 102 103 104 105 106 107 108 110 111 114 116 117 119 120 121 122 123 129 130 131 133 135 136 138 141 144 145 146 148 150 151 152 153 155 157 158 160 162 165 166 167 173 175 176 177 178 180 181 183 185 186 187 189 191 195 196 197 199 200 201 203 205 208 209 211 212 213 214 215 216 217 218 219 220 222 225 226 227 229 232 233 234 237 238 239 240 241 242 245 247 248 249
7 397
8 274 35 51 58 62 63 66 69 72 76 77 90 105 111 121 122 129 150 160 178 183 186 196 201 212 219 226 232
9 329 16 24 35 39 41 51 54 55 58 62 63 64 66 69 72 76 77 89 90 105 108 111 121 122 129 130 133 150 157 160 178 180 183 186 187 196 201 205 208 212 216 219 225 226 232 237 239 240 247
10 362
11 303
12 335 35 51 58 62 63 66 69 72 76 77 90 105 111 121 122 129 150 160 178 183 186 196 201 212 219 226 232
13 491
14 251 16 20 24 29 30 35 36 39 41 51 52 53 54 55 58 62 63 64 66 67 69 72 74 76 77 78 84 85 89 90 92 96 104 105 106 107 108 110 111 114 116 117 121 122 129 130 133 138 145 150 151 153 157 160 165 176 178 180 183 186 187 196 197 199 201 203 205 208 209 211 212 216 218 219 225 226 232 233 234 237 239 240 242 245 247 249
15 258 16 24 35 39 41 51 54 55 58 62 63 64 66 69 72 76 77 84 89 90 105 106 108 111 121 122 129 130 133 150 157 160 178 180 183 186 187 196 201 205 208 212 216 218 219 225 226 232 237 239 240 247
16 379 19 20 24 29 30 35 36 39 41 42 44 47 51 52 53 54 55 56 58 62 63 64 66 67 69 71 72 73 74 76 77 78 84 85 89 90 91 92 95 96 102 104 105 106 107 108 110 111 114 116 117 121 122 123 129 130 131 133 135 138 145 146 150 151 153 157 158 160 162 165 166 176 177 178 180 181 183 185 186 187 196 197 199 201 203 205 208 209 211 212 214 215 216 217 218 219 222 225 226 232 233 234 237 239 240 242 245 247 249
17 256 51 62 63 72 76 77 90 105 111 121 129 160 201 219 232
18 365 90
19 394 24 29 35 36 39 41 51 54 55 58 62 63 64 66 67 69 72 76 77 78 84 85 89 90 92 96 105 106 108 110 111 116 117 121 122 129 130 133 145 150 151 157 160 165 178 180 183 186 187 196 197 199 201 203 205 208 209 212 216 218 219 225 226 232 234 237 239 240 245 247
20 294 24 29 30 35 36 39 41 51 54 55 58 62 63 64 66 67 69 72 76 77 78 84 85 89 90 92 96 105 106 108 110 111 116 117 121 122 129 130 133 145 150 151 157 160 165 178 180 183 186 187 196 197 199 201 203 205 208 209 212 216 218 219 225 226 232 233 234 237 239 240 242 245 247
21 312
22 437
23 274
24 289 29 30 35 36 39 41 42 44 46 47 51 52 53 54 55 56 58 62 63 64 66 67 69 71 72 73 74 76 77 78 84 85 89 90 91 92 93 95 96 102 104 105 106 107 108 110 111 114 116 117 121 122 123 129 130 131 133 135 136 138 145 146 150 151 153 157 158 160 162 165 166 176 177 178 180 181 183 185 186 187 196 197 199 201 203 205 208 209 211 212 213 214 215 216 217 218 219 222 225 226 227 232 233 234 237 239 240 242 245 247 249
25 438
26 271
27 291
28 398 51 62 63 72 76 77 90 105 111 121 129 160 201 219 232
29 290 30 35 36 39 41 42 44 47 51 52 53 54 55 58 62 63 64 66 67 69 71 72 74 76 77 78 84 85 89 90 91 92 95 96 102 104 105 106 107 108 110 111 114 116 117 121 122 123 129 130 131 133 135 138 145 146 150 151 153 157 160 165 176 178 180 181 183 185 186 187 196 197 199 201 203 205 208 209 211 212 216 218 219 225 226 232 233 234 237 239 240 242 245 247 249
30 312 35 36 39 41 51 52 53 54 55 58 62 63 64 66 67 69 72 74 76 77 78 84 85 89 90 92 96 104 105 106 107 108 110 111 114 116 117 121 122 129 130 133 138 145 146 150 151 153 157 160 165 176 178 180 183 186 187 196 197 199 201 203 205 208 209 211 212 216 218 219 225 226 232 233 234 237 239 240 242 245 247 249
31 396
32 261
33 343 51 58 62 63 66 69 72 76 77 90 105 111 121 122 129 150 160 178 183 186 201 219 226 232
34 482
35 252 36 39 41 42 44 46 47 51 52 53 54 55 56 58 62 63 64 66 67 69 71 72 73 74 75 76 77 78 84 85 89 90 91 92 93 95 96 102 103 104 105 106 107 108 110 111 114 116 117 120 121 122 123 129 130 131 133 135 136 138 141 144 145 146 148 150 151 152 153 155 157 158 160 162 165 166 167 173 176 177 178 180 181 183 185 186 187 191 195 196 197 199 200 201 203 205 208 209 211 212 213 214 215 216 217 218 219 220 222 225 226 227 229 232 233 234 237 238 239 240 241 242 245 247 248 249
36 266 39 41 44 51 52 53 54 55 58 62 63 64 66 67 69 72 74 76 77 78 84 85 89 90 92 96 104 105 106 107 108 110 111 114 116 117 121 122 129 130 133 135 138 145 146 150 151 153 157 160 165 176 178 180 181 183 186 187 196 197 199 201 203 205 208 209 211 212 216 218 219 225 226 232 233 234 237 239 240 242 245 247 249
37 425
38 252
39 323 41 42 44 46 47 51 52 53 54 55 56 58 62 63 64 66 67 69 71 72 73 74 76 77 78 84 85 89 90 91 92 93 95 96 102 103 104 105 106 107 108 110 111 114 116 117 121 122 123 129 130 131 133 135 136 138 141 144 145 146 148 150 151 152 153 157 158 160 162 165 166 176 177 178 180 181 183 185 186 187 191 196 197 199 201 203 205 208 209 211 212 213 214 215 216 217 218 219 222 225 226 227 232 233 234 237 238 239 240 242 245 247 249
40 382
41 291 42 44 46 47 51 52 53 54 55 56 58 62 63 64 66 67 69 71 72 73 74 76 77 78 84 85 89 90 91 92 93 95 96 102 104 105 106 107 108 110 111 114 116 117 121 122 123 129 130 131 133 135 136 138 144 145 146 150 151 152 153 157 158 160 162 165 166 176 177 178 180 181 183 185 186 187 196 197 199 201 203 205 208 209 211 212 213 214 215 216 217 218 219 222 225 226 227 232 233 234 237 238 239 240 242 245 247 249
42 327 51 54 55 58 62 63 64 66 67 69 72 76 77 84 85 89 90 92 96 105 106 108 110 111 117 121 122 129 130 133 145 150 151 157 160 165 178 180 183 186 187 196 201 205 208 209 212 216 218 219 225 226 232 234 237 239 240 247
43 414
44 262 51 54 55 58 62 63 64 66 67 69 72 76 77 78 84 85 89 90 92 96 105 106 108 110 111 116 117 121 122 129 130 133 145 150 151 157 160 165 178 180 183 186 187 196 197 199 201 203 205 208 209 212 216 218 219 225 226 232 234 237 239 240 245 247
45 324
46 388 51 54 55 58 62 63 66 69 72 76 77 89 90 105 108 111 121 122 129 130 150 160 178 183 186 187 196 201 205 212 219 225 226 232 237
47 251 51 54 55 58 62 63 64 66 67 69 72 76 77 84 85 89 90 92 96 105 106 108 110 111 116 117 121 122 129 130 133 145 150 151 157 160 165 178 180 183 186 187 196 197 199 201 205 208 209 212 216 218 219 225 226 232 234 237 239 240 245 247
48 361
49 426
50 259
51 315 52 53 54 55 56 58 62 63 64 66 67 69 71 72 73 74 75 76 77 78 84 85 89 90 91 92 93 95 96 102 103 104 105 106 107 108 110 111 114 116 117 119 120 121 122 123 129 130 131 133 135 136 138 141 144 145 146 148 150 151 152 153 155 157 158 160 162 165 166 167 173 175 176 177 178 180 181 183 185 186 187 189 191 195 196 197 199 200 201 203 205 208 209 211 212 213 214 215 216 217 218 219 220 222 225 226 227 229 232 233 234 237 238 239 240 241 242 245 247 248 249
52 377 53 54 55 58 62 63 64 66 67 69 72 74 76 77 78 84 85 89 90 92 96 104 105 106 108 110 111 116 117 121 122 129 130 133 138 145 150 151 157 160 165 176 178 180 183 186 187 196 197 199 201 203 205 208 209 211 212 216 218 219 225 226 232 233 234 237 239 240 242 245 247 249
53 258 54 55 58 62 63 64 66 67 69 72 74 76 77 78 84 85 89 90 92 96 104 105 106 107 108 110 111 114 116 117 121 122 129 130 133 138 145 150 151 157 160 165 176 178 180 183 186 187 196 197 199 201 203 205 208 209 211 212 216 218 219 225 226 232 233 234 237 239 240 242 245 247 249
54 365 55 56 58 62 63 64 66 67 69 71 72 73 74 76 77 78 84 85 89 90 91 92 93 95 96 102 103 104 105 106 107 108 110 111 114 116 117 120 121 122 123 129 130 131 133 135 136 138 141 144 145 146 148 150 151 152 153 155 157 158 160 162 165 166 167 176 177 178 180 181 183 185 186 187 191 196 197 199 200 201 203 205 208 209 211 212 213 214 215 216 217 218 219 222 225 226 227 232 233 234 237 238 239 240 242 245 247 249
55 455 56 58 62 63 64 66 67 69 71 72 73 74 76 77 78 84 85 89 90 91 92 93 95 96 102 104 105 106 107 108 110 111 114 116 117 121 122 123 129 130 131 133 135 136 138 145 146 150 151 153 157 158 160 162 165 166 176 177 178 180 181 183 185 186 187 196 197 199 201 203 205 208 209 211 212 213 214 215 216 217 218 219 222 225 226 227 232 233 234 237 239 240 242 245 247 249
56 266 58 62 63 64 66 69 72 76 77 89 90 105 108 111 121 122 129 130 133 150 157 160 178 180 183 186 187 196 201 205 208 212 216 219 225 226 232 237 239 240 247
57 279
58 411 62 63 64 66 67 69 71 72 73 74 75 76 77 78 84 85 89 90 91 92 93 95 96 102 103 104 105 106 107 108 110 111 114 116 117 120 121 122 123 129 130 131 133 135 136 138 141 144 145 146 148 150 151 152 153 155 157 158 160 162 165 166 167 173 176 177 178 180 181 183 185 186 187 191 195 196 197 199 200 201 203 205 208 209 211 212 213 214 215 216 217 218 219 220 222 225 226 227 229 232 233 234 237 238 239 240 241 242 245 247 248 249
59 260 90
60 329
61 356
62 295 63 64 66 67 69 71 72 73 74 75 76 77 78 84 85 89 90 91 92 93 95 96 102 103 104 105 106 107 108 110 111 114 116 117 119 120 121 122 123 129 130 131 133 135 136 138 141 144 145 146 148 150 151 152 153 155 157 158 160 162 165 166 167 173 175 176 177 178 180 181 183 185 186 187 189 191 195 196 197 199 200 201 203 205 208 209 211 212 213 214 215 216 217 218 219 220 222 225 226 227 229 232 233 234 237 238 239 240 241 242 245 247 248 249
63 349 64 66 67 69 71 72 73 74 75 76 77 78 84 85 89 90 91 92 93 95 96 102 103 104 105 106 107 108 110 111 114 116 117 119 120 121 122 123 129 130 131 133 135 136 138 141 144 145 146 148 150 151 152 153 155 157 158 160 162 165 166 167 173 175 176 177 178 180 181 183 185 186 187 189 191 195 196 197 199 200 201 203 205 208 209 211 212 213 214 215 216 217 218 219 220 222 225 226 227 229 232 233 234 237 238 239 240 241 242 245 247 248 249
64 470 66 67 69 71 72 73 74 76 77 78 84 85 89 90 91 92 95 96 102 104 105 106 107 108 110 111 114 116 117 121 122 123 129 130 131 133 135 138 145 146 150 151 153 157 158 160 162 165 166 176 177 178 180 181 183 185 186 187 196 197 199 201 203 205 208 209 211 212 215 216 217 218 219 222 225 226 232 233 234 237 239 240 242 245 247 249
65 257
66 273 67 69 71 72 73 74 75 76 77 78 84 85 89 90 91 92 93 95 96 102 103 104 105 106 107 108 110 111 114 116 117 120 121 122 123 129 130 131 133 135 136 138 141 144 145 146 148 150 151 152 153 155 157 158 160 162 165 166 167 173 176 177 178 180 181 183 185 186 187 191 195 196 197 199 200 201 203 205 208 209 211 212 213 214 215 216 217 218 219 220 222 225 226 227 229 232 233 234 237 238 239 240 241 242 245 247 248 249
67 449 69 71 72 74 76 77 78 84 85 89 90 91 92 95 96 102 104 105 106 107 108 110 111 114 116 117 121 122 123 129 130 131 133 135 138 145 146 150 151 153 157 160 165 176 178 180 181 183 185 186 187 196 197 199 201 203 205 208 209 211 212 215 216 217 218 219 222 225 226 232 233 234 237 239 240 242 245 247 249
68 252
69 299 71 72 73 74 75 76 77 78 84 85 89 90 91 92 93 95 96 102 103 104 105 106 107 108 110 111 114 116 117 120 121 122 123 129 130 131 133 135 136 138 141 144 145 146 148 150 151 152 153 155 157 158 160 162 165 166 167 173 176 177 178 180 181 183 185 186 187 191 195 196 197 199 200 201 203 205 208 209 211 212 213 214 215 216 217 218 219 220 222 225 226 227 229 232 233 234 237 238 239 240 241 242 245 247 248 249
70 380
71 280 72 76 77 78 84 85 89 90 92 96 105 106 108 110 111 116 117 121 122 129 130 133 145 150 151 157 160 165 178 180 183 186 187 196 197 199 201 205 208 209 212 216 218 219 225 226 232 234 237 239 240 245 247
72 340 73 74 75 76 77 78 84 85 89 90 91 92 93 95 96 102 103 104 105 106 107 108 110 111 114 116 117 119 120 121 122 123 129 130 131 133 135 136 138 141 144 145 146 148 150 151 152 153 155 157 158 160 162 165 166 167 173 175 176 177 178 180 181 183 185 186 187 189 191 195 196 197 199 200 201 203 205 208 209 211 212 213 214 215 216 217 218 219 220 222 225 226 227 229 232 233 234 237 238 239 240 241 242 245 247 248 249
73 378 76 77 89 90 105 108 111 121 122 129 130 150 160 178 180 183 186 187 196 201 205 208 212 216 219 225 226 232 237 239 240
74 305 76 77 78 84 85 89 90 92 96 104 105 106 108 110 111 116 117 121 122 129 130 133 138 145 150 151 157 160 165 176 178 180 183 186 187 196 197 199 201 203 205 208 209 211 212 216 218 219 225 226 232 233 234 237 239 240 242 245 247 249
75 317 76 77 90 105 111 121 122 129 150 160 178 183 186 196 201 212 219 226 232
76 440 77 78 84 85 89 90 91 92 93 95 96 102 103 104 105 106 107 108 110 111 114 116 117 119 120 121 122 123 129 130 131 133 135 136 138 141 144 145 146 148 150 151 152 153 155 157 158 160 162 165 166 167 173 175 176 177 178 180 181 183 185 186 187 189 191 195 196 197 199 200 201 203 205 208 209 211 212 213 214 215 216 217 218 219 220 222 225 226 227 229 232 233 234 237 238 239 240 241 242 245 247 248 249
77 255 78 84 85 89 90 91 92 93 95 96 102 103 104 105 106 107 108 110 111 114 116 117 119 120 121 122 123 129 130 131 133 135 136 138 141 144 145 146 148 150 151 152 153 155 157 158 160 162 165 166 167 173 175 176 177 178 180 181 183 185 186 187 189 191 195 196 197 199 200 201 203 205 208 209 211 212 213 214 215 216 217 218 219 220 222 225 226 227 229 232 233 234 237 238 239 240 241 242 245 247 248 249
78 305 84 85 89 90 92 96 104 105 106 107 108 110 111 114 116 117 121 122 129 130 133 135 138 145 146 150 151 153 157 160 165 176 178 180 181 183 186 187 196 197 199 201 203 205 208 209 211 212 216 218 219 225 226 232 233 234 237 239 240 242 245 247 249
79 435
80 270 90 201 219
81 295
82 478
83 252
84 270 85 89 90 91 92 95 96 102 104 105 106 107 108 110 111 114 116 117 121 122 123 129 130 131 133 135 138 145 146 150 151 153 157 160 165 176 177 178 180 181 183 185 186 187 196 197 199 201 203 205 208 209 211 212 215 216 217 218 219 222 225 226 232 233 234 237 239 240 242 245 247 249
85 446 89 90 91 92 95 96 102 104 105 106 107 108 110 111 114 116 117 121 122 123 129 130 131 133 135 138 145 146 150 151 153 157 160 165 176 178 180 181 183 185 186 187 196 197 199 201 203 205 208 209 211 212 216 217 218 219 225 226 232 233 234 237 239 240 242 245 247 249
86 252
87 302
88 388
89 274 90 91 92 93 95 96 102 104 105 106 107 108 110 111 114 116 117 121 122 123 129 130 131 133 135 136 138 144 145 146 150 151 152 153 157 158 160 162 165 166 176 177 178 180 181 183 185 186 187 196 197 199 201 203 205 208 209 211 212 213 214 215 216 217 218 219 222 225 226 227 232 233 234 237 238 239 240 242 245 247 249
90 338 91 92 93 95 96 102 103 104 105 106 107 108 110 111 114 116 117 119 120 121 122 123 129 130 131 133 135 136 138 141 144 145 146 148 150 151 152 153 155 157 158 160 162 165 166 167 173 175 176 177 178 180 181 183 185 186 187 189 191 195 196 197 199 200 201 203 205 208 209 211 212 213 214 215 216 217 218 219 220 222 225 226 227 229 232 233 234 237 238 239 240 241 242 245 247 248 249
91 476 92 96 105 106 108 110 111 117 121 122 129 130 133 145 150 151 157 160 165 178 180 183 186 187 196 201 205 208 209 212 216 218 219 225 226 232 234 237 239 240 247
92 260 95 96 102 104 105 106 107 108 110 111 114 116 117 121 122 123 129 130 131 133 135 138 145 146 150 151 153 157 160 165 176 178 180 181 183 185 186 187 196 197 199 201 203 205 208 209 211 212 215 216 217 218 219 225 226 232 233 234 237 239 240 242 245 247 249
93 264 105 108 111 121 122 129 130 150 160 178 180 183 186 187 196 201 205 212 219 225 226 232 237 239 240
94 487
95 250 96 105 106 108 110 111 116 117 121 122 129 130 133 145 150 151 157 160 165 178 180 183 186 187 196 197 199 201 205 208 209 212 216 218 219 225 226 232 234 237 239 240 245 247
96 263 102 104 105 106 107 108 110 111 114 116 117 121 122 123 129 130 131 133 135 138 145 146 150 151 153 157 160 165 176 178 180 181 183 185 186 187 196 197 199 201 203 205 208 209 211 212 215 216 217 218 219 222 225 226 232 233 234 237 239 240 242 245 247 249
97 469
98 262
99 269
100 415
101 257
102 328 105 106 108 110 111 116 117 121 122 129 130 133 145 150 151 157 160 165 178 180 183 186 187 196 197 199 201 205 208 209 212 216 218 219 225 226 232 234 237 239 240 245 247
103 369 105 111 121 122 129 150 160 178 183 186 196 201 212 219 225 226 232 237
104 292 105 106 107 108 110 111 116 117 121 122 129 130 133 138 145 150 151 157 160 165 176 178 180 183 186 187 196 197 199 201 203 205 208 209 211 212 216 218 219 225 226 232 233 234 237 239 240 242 245 247 249
105 339 106 107 108 110 111 114 116 117 119 120 121 122 123 129 130 131 133 135 136 138 141 144 145 146 148 150 151 152 153 155 157 158 160 162 165 166 167 173 175 176 177 178 180 181 183 185 186 187 189 191 195 196 197 199 200 201 203 205 208 209 211 212 213 214 215 216 217 218 219 220 222 225 226 227 229 232 233 234 237 238 239 240 241 242 245 247 248 249
106 377 107 108 110 111 114 116 117 121 122 123 129 130 131 133 135 138 145 146 150 151 153 157 158 160 165 166 176 177 178 180 181 183 185 186 187 196 197 199 201 203 205 208 209 211 212 215 216 217 218 219 222 225 226 232 233 234 237 239 240 242 245 247 249
107 297 108 110 111 116 117 121 122 129 130 133 138 145 150 151 157 160 165 176 178 180 183 186 187 196 197 199 201 203 205 208 209 211 212 216 218 219 225 226 232 233 234 237 239 240 242 245 247 249
108 326 110 111 114 116 117 121 122 123 129 130 131 133 135 136 138 145 146 150 151 153 157 158 160 162 165 166 176 177 178 180 181 183 185 186 187 196 197 199 201 203 205 208 209 211 212 213 214 215 216 217 218 219 222 225 226 227 232 233 234 237 239 240 242 245 247 249
109 411
110 282 111 114 116 117 121 122 123 129 130 131 133 135 138 145 146 150 151 153 157 160 165 176 178 180 181 183 186 187 196 197 199 201 203 205 208 209 211 212 216 218 219 225 226 232 233 234 237 239 240 242 245 247 249
111 307 114 116 117 119 120 121 122 123 129 130 131 133 135 136 138 141 144 145 146 148 150 151 152 153 155 157 158 160 162 165 166 167 173 175 176 177 178 180 181 183 185 186 187 189 191 195 196 197 199 200 201 203 205 208 209 211 212 213 214 215 216 217 218 219 220 222 225 226 227 229 232 233 234 237 238 239 240 241 242 245 247 248 249
112 369
113 281
114 350 116 117 121 122 129 130 133 138 145 150 151 157 160 165 176 178 180 183 186 187 196 197 199 201 203 205 208 209 211 212 216 218 219 225 226 232 233 234 237 239 240 242 245 247
115 436
116 267 117 121 122 123 129 130 133 135 138 145 146 150 151 153 157 160 165 176 178 180 181 183 186 187 196 197 199 201 203 205 208 209 211 212 216 218 219 225 226 232 233 234 237 239 240 242 245 247 249
117 297 121 122 123 129 130 131 133 135 138 145 146 150 151 153 157 160 165 176 178 180 181 183 185 186 187 196 197 199 201 203 205 208 209 211 212 216 218 219 225 226 232 233 234 237 239 240 242 245 247 249
118 459
119 258 121 129 160 201 219 232
120 283 121 122 129 150 160 178 183 186 196 201 212 219 226 232 237
121 458 122 123 129 130 131 133 135 136 138 141 144 145 146 148 150 151 152 153 155 157 158 160 162 165 166 167 173 175 176 177 178 180 181 183 185 186 187 189 191 195 196 197 199 200 201 203 205 208 209 211 212 213 214 215 216 217 218 219 220 222 225 226 227 229 232 233 234 237 238 239 240 241 242 245 247 248 249
122 268 123 129 130 131 133 135 136 138 141 144 145 146 148 150 151 152 153 155 157 158 160 162 165 166 167 173 176 177 178 180 181 183 185 186 187 191 195 196 197 199 200 201 203 205 208 209 211 212 213 214 215 216 217 218 219 220 222 225 226 227 229 232 233 234 237 238 239 240 241 242 245 247 248 249
123 274 129 130 133 145 150 151 157 160 165 178 180 183 186 187 196 197 199 201 205 208 209 212 216 218 219 225 226 232 234 237 239 240 245 247
124 460
125 251
126 289
127 488
128 250
129 262 130 131 133 135 136 138 141 144 145 146 148 150 151 152 153 155 157 158 160 162 165 166 167 173 175 176 177 178 180 181 183 185 186 187 189 191 195 196 197 199 200 201 203 205 208 209 211 212 213 214 215 216 217 218 219 220 222 225 226 227 229 232 233 234 237 238 239 240 241 242 245 247 248 249
130 436 131 133 135 136 138 145 146 150 151 153 157 158 160 162 165 166 176 177 178 180 181 183 185 186 187 196 197 199 201 203 205 208 209 211 212 213 214 215 216 217 218 219 222 225 226 227 232 233 234 237 239 240 242 245 247 249
131 263 133 145 150 151 157 160 165 178 180 183 186 187 196 199 201 205 208 209 212 216 218 219 225 226 232 234 237 239 240 247
132 301
133 427 135 138 145 146 150 151 153 157 158 160 162 165 166 176 177 178 180 181 183 185 186 187 196 197 199 201 203 205 208 209 211 212 215 216 217 218 219 222 225 226 232 233 234 237 239 240 242 245 247 249
134 275
135 298 145 150 151 157 160 165 178 180 183 186 187 196 197 199 201 203 205 208 209 212 216 218 219 225 226 232 234 237 239 240 245 247
136 438 150 160 178 180 183 186 187 196 201 205 212 219 225 226 232 237
137 273
138 289 145 150 151 157 160 165 176 178 180 183 186 187 196 197 199 201 203 205 208 209 211 212 216 218 219 225 226 232 233 234 237 239 240 242 245 247 249
139 460
140 269
141 271 150 160 178 183 186 196 201 212 219 226 232 237
142 444
143 261
144 295 150 160 178 183 186 187 196 201 212 219 225 226 232 237
145 477 146 150 151 153 157 160 165 176 178 180 181 183 186 187 196 197 199 201 203 205 208 209 211 212 216 218 219 225 226 232 233 234 237 239 240 242 245 247 249
146 255 150 151 157 160 165 178 180 183 186 187 196 197 199 201 203 205 208 209 212 216 218 219 225 226 232 234 237 239 240 242 245 247
147 268
148 457 150 160 178 183 186 196 201 212 219 226 232 237
149 256
150 287 151 152 153 155 157 158 160 162 165 166 167 173 176 177 178 180 181 183 185 186 187 191 195 196 197 199 200 201 203 205 208 209 211 212 213 214 215 216 217 218 219 220 222 225 226 227 229 232 233 234 237 238 239 240 241 242 245 247 248 249
151 419 153 157 160 165 176 178 180 181 183 186 187 196 197 199 201 203 205 208 209 211 212 216 218 219 225 226 232 233 234 237 239 240 242 245 247 249
152 279 160 178 183 186 187 196 201 212 219 225 226 232 237
153 302 157 160 165 178 180 183 186 187 196 197 199 201 203 205 208 209 212 216 218 219 225 226 232 233 234 237 239 240 242 245 247
154 417
155 264 160 178 183 186 196 201 212 219 226 232
156 319
157 417 158 160 165 166 176 177 178 180 181 183 185 186 187 196 197 199 201 203 205 208 209 211 212 215 216 217 218 219 222 225 226 232 233 234 237 239 240 242 245 247 249
158 271 160 178 180 183 186 187 196 201 205 208 212 216 219 225 226 232 237 239 240 247
159 312
160 474 162 165 166 167 173 175 176 177 178 180 181 183 185 186 187 189 191 195 196 197 199 200 201 203 205 208 209 211 212 213 214 215 216 217 218 219 220 222 225 226 227 229 232 233 234 237 238 239 240 241 242 245 247 248 249
161 253
162 273 178 180 183 186 187 196 201 205 208 212 216 219 225 226 232 237 239 240
163 375
164 288
165 337 176 178 180 181 183 185 186 187 196 197 199 201 203 205 208 209 211 212 215 216 217 218 219 225 226 232 233 234 237 239 240 242 245 247 249
166 458 178 180 183 186 187 196 201 205 208 212 216 219 225 226 232 237 239 240 247
167 269 178 183 186 196 201 212 219 226 232 237
168 273
169 364
170 303
171 333
172 381
173 262 178 183 186 201 219 226 232
174 357
175 353 201 219 232
176 307 178 180 183 186 187 196 197 199 201 203 205 208 209 211 212 216 218 219 225 226 232 233 234 237 239 240 242 245 247 249
177 340 178 180 183 186 187 196 201 205 208 212 216 218 219 225 226 232 234 237 239 240 247
178 470 180 181 183 185 186 187 191 195 196 197 199 200 201 203 205 208 209 211 212 213 214 215 216 217 218 219 220 222 225 226 227 229 232 233 234 237 238 239 240 241 242 245 247 248 249
179 260
180 270 181 183 185 186 187 196 197 199 201 203 205 208 209 211 212 214 215 216 217 218 219 222 225 226 227 232 233 234 237 239 240 242 245 247 249
181 366 183 186 187 196 197 199 201 203 205 208 209 212 216 218 219 225 226 232 234 237 239 240 245 247
182 289
183 345 185 186 187 191 195 196 197 199 200 201 203 205 208 209 211 212 213 214 215 216 217 218 219 220 222 225 226 227 229 232 233 234 237 238 239 240 241 242 245 247 248 249
184 384
185 264 186 187 196 201 205 208 209 212 216 218 219 225 226 232 234 237 239 240 247
186 352 187 191 195 196 197 199 200 201 203 205 208 209 211 212 213 214 215 216 217 218 219 220 222 225 226 227 229 232 233 234 237 238 239 240 241 242 245 247 248 249
187 369 196 197 199 201 203 205 208 209 211 212 213 214 215 216 217 218 219 222 225 226 227 232 233 234 237 238 239 240 242 245 247 249
188 259
189 372 201 219 232
190 470
191 255 196 201 212 219 225 226 232 237
192 275
193 471
194 255
195 274 196 201 212 219 226 232
196 424 197 199 200 201 203 205 208 209 211 212 213 214 215 216 217 218 219 220 222 225 226 227 232 233 234 237 238 239 240 241 242 245 247 249
197 280 199 201 203 205 208 209 211 212 216 218 219 225 226 232 233 234 237 239 240 242 245 247 249
198 296
199 440 201 203 205 208 209 211 212 216 218 219 225 226 232 233 234 237 239 240 242 245 247 249
200 269 201 212 219 226 232 237
201 291 203 205 208 209 211 212 213 214 215 216 217 218 219 220 222 225 226 227 229 232 233 234 237 238 239 240 241 242 245 247 248 249
202 386
203 250 205 208 209 211 212 216 218 219 225 226 232 233 234 237 239 240 242 245 247 249
204 364
205 460 208 209 211 212 213 214 215 216 217 218 219 222 225 226 227 232 233 234 237 239 240 242 245 247 249
206 255
207 285
208 376 209 211 212 214 215 216 217 218 219 222 225 226 232 233 234 237 239 240 242 245 247 249
209 292 211 212 215 216 217 218 219 225 226 232 233 234 237 239 240 242 245 247 249
210 332
211 356 212 216 218 219 225 226 232 233 234 237 239 240 242 245 247 249
212 303 213 214 215 216 217 218 219 220 222 225 226 227 232 233 234 237 238 239 240 241 242 245 247 249
213 341 219 225 226 232 237
214 480 219 225 226 232 237 239 240
215 257 216 218 219 225 226 232 234 237 239 240 247
216 263 217 218 219 222 225 226 232 233 234 237 239 240 242 245 247 249
217 424 218 219 225 226 232 234 237 239 240 247
218 268 219 222 225 226 232 233 234 237 239 240 242 245 247 249
219 308 220 222 225 226 227 229 232 233 234 237 238 239 240 241 242 245 247 248 249
220 370 226 232
221 275
222 355 225 226 232 234 237 239 240 247
223 494
224 250
225 256 226 227 232 233 234 237 238 239 240 242 245 247 249
226 434 227 229 232 233 234 237 238 239 240 241 242 245 247 248 249
227 264 232 237 239
228 302
229 463 232
230 267
231 270
232 411 233 234 237 238 239 240 241 242 245 247 248 249
233 280 234 237 239 240 242 245 247 249
234 309 237 239 240 242 245 247 249
235 427
236 255
237 318 238 239 240 242 245 247 249
238 466
239 259 240 242 245 247 249
240 275 242 245 247 249
241 491
242 252 245 247 249
243 257
244 400
245 286 247 249
246 314
247 446 249
248 260
249 294
